(set-info :smt-lib-version 2.8)
(set-logic QF_EIA)
(set-info :source |
Generated by: Florian Frohn
Generator: LoAT
Application: proving lower bounds on the worst-case runtime of transition systems
Target solver: SwInE
Time limit: 1.0
Benchmarks generated by the verification tool LoAT to evaluate the SMT solver
SwInE. We extracted all benchmarks with exponentiation that were generated by
LoAT when analyzing the examples from the category LIA-Lin (linear CHCs with
linear integer arithmetic) of the CHC competitions 2022 and 2023, and when
analyzing the examples from the categories "Termination of Integer Transition
Systems" and "Complexity of Integer Transition Systems" of the Termination and
Complexity Competition 2024. From the entire set, we selected those where
* SwInE v0.1.0 or SwInE-Z3 v0.1.2 failed or needed more than 1 second, or
* SwInE-Z3 v0.1.2 failed without phasing, a technique to prevent SwInE from
  computing with huge constants (described here
  https://arxiv.org/abs/2502.04761)
If several selected benchmarks only differed in lines not containing
exponentiation, we kept only one of them. This benchmark is known to be
satisfiable with the slightly different semantics of exponentiation used by the
versions of SwInE mentioned above.
|)
(set-info :license "https://creativecommons.org/licenses/by/4.0/")
(set-info :category "industrial")
(set-info :status unknown)

(declare-fun i1 () Int)
(declare-fun it321 () Int)
(declare-fun it322 () Int)
(declare-fun i2 () Int)
(declare-fun i3 () Int)
(declare-fun it323 () Int)
(declare-fun it324 () Int)
(declare-fun i4 () Int)
(declare-fun it325 () Int)
(declare-fun i5 () Int)
(declare-fun i6 () Int)
(declare-fun it326 () Int)
(declare-fun i7 () Int)
(declare-fun it327 () Int)
(declare-fun it541 () Int)
(declare-fun it542 () Int)
(declare-fun it543 () Int)
(declare-fun it544 () Int)
(declare-fun it545 () Int)
(declare-fun it546 () Int)
(declare-fun it547 () Int)
(declare-fun it549 () Int)
(declare-fun it550 () Int)
(declare-fun it551 () Int)
(declare-fun it552 () Int)
(declare-fun it553 () Int)
(declare-fun it554 () Int)
(declare-fun it555 () Int)
(declare-fun it558 () Int)
(declare-fun it559 () Int)
(declare-fun it560 () Int)
(declare-fun it561 () Int)
(declare-fun it562 () Int)
(declare-fun it563 () Int)
(declare-fun it564 () Int)
(declare-fun it109 () Int)
(assert (= (+ i1 (- 1)) 0))
(assert (= (+ it321 (- 2)) 0))
(assert (= (+ (* i2 (- 1)) it322 (- 1)) 0))
(assert (= (+ it323 (* i3 (- 1))) 0))
(assert (= (+ (* i4 (- 1)) it324) 0))
(assert (= (+ (* i5 (- 1)) it325) 0))
(assert (= (+ it326 (* i6 (- 1))) 0))
(assert (= (+ it327 (* i7 (- 1))) 0))
(assert (and (= (+ it321 (- 2)) 0) (> it323 0) (> it326 0)))
(assert (= (+ it541 (- 3)) 0))
(assert (= (+ it542 (* it322 (- 1)) (- 1)) 0))
(assert (= (+ (* it323 (- 1)) it543) 0))
(assert (= (+ (* it323 (- 1)) it544) 0))
(assert (= (+ it545 (* it327 (- 1))) 0))
(assert (= (+ (* it326 (- 1)) it546) 0))
(assert (= (+ (* it327 (- 1)) it547) 0))
(assert (let ((a!1 (< (+ (+ 0 (* it545 (- 1))) (** it546 5) (** it544 2)) (+ 0 0))))
  (and (> it544 0) a!1 (= (+ it541 (- 3)) 0))))
(assert (= (+ it549 (- 3)) 0))
(assert (= (+ (* it542 (- 1)) it550 (- 1)) 0))
(assert (= (+ (* it543 (- 1)) it551) 0))
(assert (= (+ (* it544 2) it552) 0))
(assert (let ((a!1 (+ (+ 0 (+ (* it545 (- 3)) it553)) (* (** it546 3) (+ 0 2)))))
  (= a!1 (+ 0 0))))
(assert (= (+ (* it546 (- 1)) it554) 0))
(assert (= (+ (* it547 (- 1)) it555) 0))
(assert (let ((a!1 (< (+ (+ 0 (* it553 (- 1))) (** it554 5) (** it552 2)) (+ 0 0))))
  (and (< it552 0) (= (+ it549 (- 3)) 0) a!1)))
(assert (= (+ it558 (- 3)) 0))
(assert (= (+ (* it550 (- 1)) it559 (- 1)) 0))
(assert (= (+ it560 (* it551 (- 1))) 0))
(assert (= (+ it561 (* it552 2)) 0))
(assert (= (+ (+ 0 (* it553 (- 3))) (* (** it554 3) (+ 0 2)) (+ 0 it562))
   (+ 0 0)))
(assert (= (+ it563 (* it554 (- 1))) 0))
(assert (= (+ it564 (* it555 (- 1))) 0))
(assert (let ((a!1 (* (* (** 9 (+ it109 (- 1))) (+ 0 it562)) (+ 0 3)))
      (a!2 (* (** (** 4 (+ it109 (- 1))) (+ 0 2)) (** it561 2)))
      (a!3 (* (* (** it563 3) (** 9 (+ it109 (- 1)))) (+ 0 (- 3))))
      (a!5 (> (+ (* (** it563 5) (+ 0 (- 1)))
                 (* (** it561 2) (+ 0 (- 1)))
                 (+ 0 it562))
              (+ 0 0)))
      (a!6 (* (* (** it563 3) (** 9 (+ it109 (- 1)))) (+ 0 (- 1)))))
(let ((a!4 (> (+ (* (** it563 5) (+ 0 (- 1)))
                 a!1
                 (* a!2 (+ 0 (- 4)))
                 a!3
                 (** it563 3))
              (+ 0 0)))
      (a!7 (+ (* (** it563 5) (+ 0 (- 1)))
              (* (** 9 (+ it109 (- 1))) (+ 0 it562))
              (* a!2 (+ 0 (- 1)))
              a!6
              (** it563 3))))
  (and a!4
       (>= (+ it558 (- 3)) 0)
       a!5
       (> (* it561 2) 0)
       (> it561 0)
       (> a!7 (+ 0 0))
       (>= (+ (* it558 (- 1)) 3) 0)
       (>= (+ it109 (- 1)) 0)))))
(check-sat)
(exit)
